************************************************************************
file with basedata            : md338_.bas
initial value random generator: 150972013
************************************************************************
projects                      :  1
jobs (incl. supersource/sink ):  22
horizon                       :  156
RESOURCES
  - renewable                 :  2   R
  - nonrenewable              :  2   N
  - doubly constrained        :  0   D
************************************************************************
PROJECT INFORMATION:
pronr.  #jobs rel.date duedate tardcost  MPM-Time
    1     20      0       22       10       22
************************************************************************
PRECEDENCE RELATIONS:
jobnr.    #modes  #successors   successors
   1        1          3           2   3   4
   2        3          3          10  12  18
   3        3          2           7  11
   4        3          3           5   8  14
   5        3          1           6
   6        3          3           9  11  13
   7        3          2          12  16
   8        3          2          16  18
   9        3          3          19  20  21
  10        3          3          13  14  21
  11        3          3          15  18  20
  12        3          2          14  20
  13        3          1          17
  14        3          1          17
  15        3          1          16
  16        3          1          17
  17        3          1          19
  18        3          2          19  21
  19        3          1          22
  20        3          1          22
  21        3          1          22
  22        1          0        
************************************************************************
REQUESTS/DURATIONS:
jobnr. mode duration  R 1  R 2  N 1  N 2
------------------------------------------------------------------------
  1      1     0       0    0    0    0
  2      1     1       0    6    9    0
         2     9       9    0    9    0
         3     9      10    0    0   10
  3      1     1       8    0    9    0
         2     2       0    5    8    0
         3     3       3    0    0    5
  4      1     5       0    7    0    6
         2     6       7    0    0    5
         3     7       3    0    0    2
  5      1     2       0    3    6    0
         2     9       8    0    5    0
         3    10       7    0    0    7
  6      1     3       0    4    0    7
         2     6       8    0    0    6
         3     8       5    0    0    6
  7      1     1       7    0    0    9
         2     4       0    6    0    5
         3     6       5    0   10    0
  8      1     2       7    0    0    9
         2     4       0    3    5    0
         3     8       0    2    0    9
  9      1     1      10    0    0    7
         2     8       7    0    0    5
         3     9       0    6   10    0
 10      1     6       7    0    5    0
         2     6       0   10    0    4
         3     9       0   10    4    0
 11      1     1       0    7    7    0
         2     8       0    7    0    7
         3    10      10    0    1    0
 12      1     2       0    5    0   10
         2     5       0    2    0    9
         3     7       5    0    0    9
 13      1     1       0    4    7    0
         2     3       0    3    0    5
         3     9       0    3    0    4
 14      1     3       0    9    6    0
         2     6       0    8    4    0
         3     7       6    0    0    6
 15      1     1       5    0    0    2
         2     5       3    0    0    2
         3     5       0    8    0    2
 16      1     4       6    0    0    2
         2     6       0    9    1    0
         3     8       0    3    0    2
 17      1     4       9    0    8    0
         2     7       8    0    0    4
         3     8       8    0    4    0
 18      1     2       0    9    0    9
         2     4       0    2    0    6
         3     8       7    0    0    6
 19      1     2       4    0    6    0
         2     9       4    0    3    0
         3     9       4    0    0    6
 20      1     2       5    0    0    6
         2     3       0    6    3    0
         3     9       5    0    0    5
 21      1     1       7    0    0    6
         2     3       5    0    8    0
         3     7       0    8    0    4
 22      1     0       0    0    0    0
************************************************************************
RESOURCEAVAILABILITIES:
  R 1  R 2  N 1  N 2
   17   15   75  102
************************************************************************
MAXIMAL LAGS:
from  to  type  delay
    1   22   ES      0
    1    2   ES      0
    2   22   ES      0
    1    3   ES      0
    3   22   ES      0
    1    4   ES      0
    4   22   ES      0
    1    5   ES      0
    5   22   ES      0
    1    6   ES      0
    6   22   ES      0
    1    7   ES      0
    7   22   ES      0
    1    8   ES      0
    8   22   ES      0
    1    9   ES      0
    9   22   ES      0
    1   10   ES      0
   10   22   ES      0
    1   11   ES      0
   11   22   ES      0
    1   12   ES      0
   12   22   ES      0
    1   13   ES      0
   13   22   ES      0
    1   14   ES      0
   14   22   ES      0
    1   15   ES      0
   15   22   ES      0
    1   16   ES      0
   16   22   ES      0
    1   17   ES      0
   17   22   ES      0
    1   18   ES      0
   18   22   ES      0
    1   19   ES      0
   19   22   ES      0
    1   20   ES      0
   20   22   ES      0
    1   21   ES      0
   21   22   ES      0
    1   22   ES      0
    2   10   SS     -5
    2   10   SE     -7
    2   10   ES     -4
    2   10   EE      8
    2   12   SS      5
    2   12   SE     -3
    2   12   ES      9
    2   12   EE    -10
    2   18   SS     10
    2   18   SE     11
    2   18   ES     11
    2   18   EE     -6
    3    7   SS      3
    3    7   SE      1
    3    7   ES     12
    3    7   EE      5
    3   11   SS     -9
    3   11   SE     -1
    3   11   ES    -10
    3   11   EE     12
    4    5   SS     -9
    4    5   SE      4
    4    5   ES     12
    4    5   EE     12
    4    8   SS     -2
    4    8   SE      1
    4    8   ES      2
    4    8   EE     -7
    4   14   SS     -4
    4   14   SE     -6
    4   14   ES      4
    4   14   EE    -11
    5    6   SS      2
    5    6   SE    -12
    5    6   ES    -10
    5    6   EE      8
    6    9   SS     10
    6    9   SE      9
    6    9   ES     11
    6    9   EE      2
    6   11   SS      0
    6   11   SE     -2
    6   11   ES     11
    6   11   EE      0
    6   13   SS     -6
    6   13   SE      0
    6   13   ES    -11
    6   13   EE    -12
    7   12   SS     -4
    7   12   SE     -9
    7   12   ES     10
    7   12   EE     -8
    7   16   SS     -2
    7   16   SE      9
    7   16   ES     11
    7   16   EE      2
    8   16   SS      3
    8   16   SE      2
    8   16   ES    -10
    8   16   EE    -10
    8   18   SS      5
    8   18   SE      9
    8   18   ES     -5
    8   18   EE     10
    9   19   SS      2
    9   19   SE     -8
    9   19   ES      3
    9   19   EE     -4
    9   20   SS     -7
    9   20   SE     -7
    9   20   ES    -12
    9   20   EE      7
    9   21   SS     -9
    9   21   SE     -7
    9   21   ES     -3
    9   21   EE     -9
   10   13   SS      5
   10   13   SE     11
   13   10   SE      0
   10   13   ES      0
   10   13   EE     -7
   10   14   SS    -10
   10   14   SE      9
   10   14   ES     12
   10   14   EE    -12
   10   21   SS      9
   10   21   SE     -4
   10   21   ES     -8
   10   21   EE      2
   11   15   SS     -1
   11   15   SE     -7
   11   15   ES     -6
   11   15   EE     10
   11   18   SS    -11
   11   18   SE      9
   11   18   ES      5
   11   18   EE     -6
   11   20   SS      2
   11   20   SE     10
   11   20   ES    -11
   11   20   EE      8
   12   14   SS      4
   12   14   SE      8
   12   14   ES      9
   12   14   EE     10
   12   20   SS      9
   12   20   SE     -9
   12   20   ES      0
   12   20   EE     10
   13   17   SS     -3
   13   17   SE      2
   13   17   ES    -11
   13   17   EE      7
   14   17   SS    -12
   14   17   SE    -11
   14   17   ES     12
   14   17   EE      0
   15   16   SS     12
   15   16   SE     -6
   15   16   ES     -5
   15   16   EE     -1
   16   17   SS     -5
   16   17   SE     -6
   16   17   ES    -10
   16   17   EE    -12
   17   19   SS      1
   17   19   SE    -12
   17   19   ES    -12
   17   19   EE     -2
   18   19   SS     -6
   18   19   SE      9
   18   19   ES      9
   18   19   EE    -10
   18   21   SS     -5
   18   21   SE     -9
   18   21   ES      9
   18   21   EE     -7
************************************************************************
